p wcnf 186 219 220 
1 -47 85 0 
1 42 15 0 
1 -136 57 0 
1 -31 -3 0 
1 58 146 0 
1 -83 -84 0 
1 -31 -159 0 
1 60 -128 0 
1 -186 13 0 
1 100 -65 0 
1 -160 16 0 
1 40 25 0 
1 -115 -92 0 
1 171 83 0 
1 180 -22 0 
1 -185 -94 0 
1 -36 116 0 
1 4 169 0 
1 -158 -1 0 
1 -143 -169 0 
1 171 107 0 
1 160 71 0 
1 135 32 0 
1 -59 -77 0 
1 94 63 0 
1 -61 -171 0 
1 -46 -114 0 
1 -48 56 0 
1 -110 -130 0 
1 -169 -30 0 
1 -33 71 0 
1 -171 -111 0 
1 110 -37 0 
1 1 -65 0 
1 -74 89 0 
1 -74 -21 0 
1 166 133 0 
1 -122 150 0 
1 32 53 0 
1 -70 -93 0 
1 -178 -40 0 
1 54 -164 0 
1 -166 25 0 
1 79 128 0 
1 -85 -5 0 
1 31 -11 0 
1 -11 -129 0 
1 -97 -160 0 
1 122 153 0 
1 135 91 0 
1 120 136 0 
1 171 -168 0 
1 118 146 0 
1 -26 29 0 
1 -40 92 0 
1 -123 -14 0 
1 112 -17 0 
1 65 -160 0 
1 -1 55 0 
1 -90 -144 0 
1 -53 -157 0 
1 -3 -95 0 
1 85 -106 0 
1 164 -16 0 
1 -120 113 0 
1 -115 -88 0 
1 34 134 0 
1 -46 -34 0 
1 -167 -173 0 
1 88 46 0 
1 -123 43 0 
1 -53 -68 0 
1 54 -15 0 
1 123 -108 0 
1 -95 -117 0 
1 17 95 0 
1 84 -47 0 
1 -129 -118 0 
1 -177 -129 0 
1 -72 155 0 
1 29 -171 0 
1 38 121 0 
1 -85 -13 0 
1 92 182 0 
1 123 148 0 
1 -36 -50 0 
1 33 -67 0 
1 28 95 0 
1 -84 -112 0 
1 84 -102 0 
1 32 -71 0 
1 2 31 0 
1 184 5 0 
1 121 101 0 
1 -148 137 0 
1 89 -105 0 
1 -78 -148 0 
1 -150 -163 0 
1 -10 -127 0 
1 -40 -10 0 
1 171 182 0 
1 -35 166 0 
1 -182 20 0 
1 -144 -111 0 
1 -86 -116 0 
1 -112 184 0 
1 121 -123 0 
1 129 117 0 
1 146 -163 0 
1 -9 -64 0 
1 -184 143 0 
1 61 60 0 
1 84 -59 0 
1 -154 -159 0 
1 184 -78 0 
1 103 -34 0 
1 -167 149 0 
1 174 -149 0 
1 -6 -52 0 
1 5 -132 0 
1 -24 88 0 
1 -78 -33 0 
1 154 111 0 
1 103 33 0 
1 -100 45 0 
1 103 -183 0 
1 -136 -162 0 
1 101 -5 0 
1 -7 -72 0 
1 -48 68 0 
1 -68 87 0 
1 180 163 0 
1 -29 -181 0 
1 60 -2 0 
1 36 -131 0 
1 154 -143 0 
1 -15 -127 0 
1 -100 -40 0 
1 176 122 0 
1 173 -160 0 
1 -44 -96 0 
1 -185 54 0 
1 -174 133 0 
1 82 -175 0 
1 -64 -185 0 
1 155 -28 0 
1 114 49 0 
1 -116 141 0 
1 123 -127 0 
1 105 -92 0 
1 68 -24 0 
1 -183 -7 0 
1 107 69 0 
1 -179 171 0 
1 132 -163 0 
1 143 16 0 
1 15 62 0 
1 168 118 0 
1 138 82 0 
1 -155 121 0 
1 -53 -26 0 
1 20 -52 0 
1 -105 139 0 
1 108 62 0 
1 174 111 0 
1 70 -92 0 
1 -40 -74 0 
1 63 -95 0 
1 116 1 0 
1 111 6 0 
1 178 132 0 
1 -142 184 0 
1 -30 103 0 
1 158 -43 0 
1 -153 43 0 
1 134 -11 0 
1 -39 142 0 
1 -77 -61 0 
1 -162 163 0 
1 105 -64 0 
1 -146 -27 0 
1 -74 -170 0 
1 12 -186 0 
1 -112 131 0 
1 85 24 0 
1 -116 -1 0 
1 40 182 0 
1 68 -46 0 
1 72 148 0 
1 34 2 0 
1 8 59 0 
1 85 54 0 
1 145 -170 0 
1 42 181 0 
1 -130 -156 0 
1 -58 76 0 
1 -42 -177 0 
1 94 170 0 
1 -177 64 0 
1 -166 -185 0 
1 79 7 0 
1 140 -159 0 
1 -71 51 0 
1 -137 -171 0 
1 -43 -78 0 
1 66 -18 0 
1 167 -148 0 
1 97 -37 0 
1 -182 95 0 
1 -5 68 0 
1 96 -35 0 
1 -20 -177 0 
1 -79 -144 0 
1 -181 32 0 
1 -104 -12 0 
1 108 -48 0 
1 24 -119 0 
1 48 181 0 
1 105 -138 0 
